code/vi_33_20_packing.lp
\ LP format - for model browsing. Use MPS format to capture full model detail.
Minimize
  C
Subject To
 init_flow(0): x(1,i,0,2,0) = 1
 init_flow(1): x(2,i,0,2,0) = 1
 init_flow(2): x(3,i,0,2,0) = 1
 final_flow(0): x(1,1,8) + x(1,1,9) + x(1,1,10) + x(1,1,11) + x(1,1,12)
   + x(1,1,13) + x(1,1,14) + x(1,1,15) + x(1,1,16) + x(1,1,17) + x(1,1,18)
   + x(1,1,19) + x(1,1,20) = 1
 final_flow(1): x(2,3,9) + x(2,3,10) + x(2,3,11) + x(2,3,12) + x(2,3,13)
   + x(2,3,14) + x(2,3,15) + x(2,3,16) + x(2,3,17) + x(2,3,18) + x(2,3,19)
   + x(2,3,20) + x(2,3,21) + x(2,3,22) = 1
 final_flow(2): x(3,1,4) + x(3,1,5) + x(3,1,6) + x(3,1,7) + x(3,1,8)
   + x(3,1,9) + x(3,1,10) + x(3,1,11) + x(3,1,12) + x(3,1,13) + x(3,1,14)
   + x(3,1,15) + x(3,1,16) + x(3,1,17) + x(3,1,18) + x(3,1,19) + x(3,1,20)
   + x(3,1,21) + x(3,1,22) = 1
 flow(1,2,0): x(1,i,0,2,0) - x(1,2,0) - e(1,2,0) = 0
 flow(1,2,1): e(1,2,0) - x(1,2,1) - e(1,2,1) = 0
 flow(1,2,2): e(1,2,1) - x(1,2,2) - e(1,2,2) = 0
 flow(1,2,3): e(1,2,2) - x(1,2,3) - e(1,2,3) = 0
 flow(1,3,3): x(1,2,0) - x(1,3,3) - e(1,3,3) = 0
 flow(1,2,4): e(1,2,3) - x(1,2,4) - e(1,2,4) = 0
 flow(1,3,4): x(1,2,1) + e(1,3,3) - x(1,3,4) - e(1,3,4) = 0
 flow(1,2,5): e(1,2,4) - x(1,2,5) - e(1,2,5) = 0
 flow(1,3,5): x(1,2,2) + e(1,3,4) - x(1,3,5) - e(1,3,5) = 0
 flow(1,2,6): e(1,2,5) - x(1,2,6) - e(1,2,6) = 0
 flow(1,3,6): x(1,2,3) + e(1,3,5) - x(1,3,6) - e(1,3,6) = 0
 flow(1,2,7): e(1,2,6) - x(1,2,7) - e(1,2,7) = 0
 flow(1,3,7): x(1,2,4) + e(1,3,6) - x(1,3,7) - e(1,3,7) = 0
 flow(1,1,8): x(1,3,3) - x(1,1,8) - e(1,1,8) = 0
 flow(1,2,8): e(1,2,7) - x(1,2,8) - e(1,2,8) = 0
 flow(1,3,8): x(1,2,5) + e(1,3,7) - x(1,3,8) - e(1,3,8) = 0
 flow(1,1,9): x(1,3,4) + e(1,1,8) - x(1,1,9) - e(1,1,9) = 0
 flow(1,2,9): e(1,2,8) - x(1,2,9) - e(1,2,9) = 0
 flow(1,3,9): x(1,2,6) + e(1,3,8) - x(1,3,9) - e(1,3,9) = 0
 flow(1,1,10): x(1,3,5) + e(1,1,9) - x(1,1,10) - e(1,1,10) = 0
 flow(1,2,10): e(1,2,9) - x(1,2,10) - e(1,2,10) = 0
 flow(1,3,10): x(1,2,7) + e(1,3,9) - x(1,3,10) - e(1,3,10) = 0
 flow(1,1,11): x(1,3,6) + e(1,1,10) - x(1,1,11) - e(1,1,11) = 0
 flow(1,2,11): e(1,2,10) - x(1,2,11) - e(1,2,11) = 0
 flow(1,3,11): x(1,2,8) + e(1,3,10) - x(1,3,11) - e(1,3,11) = 0
 flow(1,1,12): x(1,3,7) + e(1,1,11) - x(1,1,12) - e(1,1,12) = 0
 flow(1,2,12): e(1,2,11) - x(1,2,12) = 0
 flow(1,3,12): x(1,2,9) + e(1,3,11) - x(1,3,12) - e(1,3,12) = 0
 flow(1,1,13): x(1,3,8) + e(1,1,12) - x(1,1,13) - e(1,1,13) = 0
 flow(1,3,13): x(1,2,10) + e(1,3,12) - x(1,3,13) - e(1,3,13) = 0
 flow(1,1,14): x(1,3,9) + e(1,1,13) - x(1,1,14) - e(1,1,14) = 0
 flow(1,3,14): x(1,2,11) + e(1,3,13) - x(1,3,14) - e(1,3,14) = 0
 flow(1,1,15): x(1,3,10) + e(1,1,14) - x(1,1,15) - e(1,1,15) = 0
 flow(1,3,15): x(1,2,12) + e(1,3,14) - x(1,3,15) = 0
 flow(1,1,16): x(1,3,11) + e(1,1,15) - x(1,1,16) - e(1,1,16) = 0
 flow(1,1,17): x(1,3,12) + e(1,1,16) - x(1,1,17) - e(1,1,17) = 0
 flow(1,1,18): x(1,3,13) + e(1,1,17) - x(1,1,18) - e(1,1,18) = 0
 flow(1,1,19): x(1,3,14) + e(1,1,18) - x(1,1,19) - e(1,1,19) = 0
 flow(1,1,20): x(1,3,15) + e(1,1,19) - x(1,1,20) - e(1,1,20) = 0
 flow(1,1,21): e(1,1,20) = 0
 flow(2,2,0): x(2,i,0,2,0) - x(2,2,0) - e(2,2,0) = 0
 flow(2,2,1): e(2,2,0) - x(2,2,1) - e(2,2,1) = 0
 flow(2,2,2): e(2,2,1) - x(2,2,2) - e(2,2,2) = 0
 flow(2,2,3): e(2,2,2) - x(2,2,3) - e(2,2,3) = 0
 flow(2,2,4): e(2,2,3) - x(2,2,4) - e(2,2,4) = 0
 flow(2,1,5): x(2,2,0) - x(2,1,5) - e(2,1,5) = 0
 flow(2,2,5): e(2,2,4) - x(2,2,5) - e(2,2,5) = 0
 flow(2,1,6): x(2,2,1) + e(2,1,5) - x(2,1,6) - e(2,1,6) = 0
 flow(2,2,6): e(2,2,5) - x(2,2,6) - e(2,2,6) = 0
 flow(2,1,7): x(2,2,2) + e(2,1,6) - x(2,1,7) - e(2,1,7) = 0
 flow(2,2,7): e(2,2,6) - x(2,2,7) - e(2,2,7) = 0
 flow(2,1,8): x(2,2,3) + e(2,1,7) - x(2,1,8) - e(2,1,8) = 0
 flow(2,2,8): e(2,2,7) - x(2,2,8) - e(2,2,8) = 0
 flow(2,1,9): x(2,2,4) + e(2,1,8) - x(2,1,9) - e(2,1,9) = 0
 flow(2,2,9): e(2,2,8) - x(2,2,9) - e(2,2,9) = 0
 flow(2,3,9): x(2,1,5) - x(2,3,9) - e(2,3,9) = 0
 flow(2,1,10): x(2,2,5) + e(2,1,9) - x(2,1,10) - e(2,1,10) = 0
 flow(2,2,10): e(2,2,9) - x(2,2,10) - e(2,2,10) = 0
 flow(2,3,10): x(2,1,6) + e(2,3,9) - x(2,3,10) - e(2,3,10) = 0
 flow(2,1,11): x(2,2,6) + e(2,1,10) - x(2,1,11) - e(2,1,11) = 0
 flow(2,2,11): e(2,2,10) - x(2,2,11) - e(2,2,11) = 0
 flow(2,3,11): x(2,1,7) + e(2,3,10) - x(2,3,11) - e(2,3,11) = 0
 flow(2,1,12): x(2,2,7) + e(2,1,11) - x(2,1,12) - e(2,1,12) = 0
 flow(2,2,12): e(2,2,11) - x(2,2,12) - e(2,2,12) = 0
 flow(2,3,12): x(2,1,8) + e(2,3,11) - x(2,3,12) - e(2,3,12) = 0
 flow(2,1,13): x(2,2,8) + e(2,1,12) - x(2,1,13) - e(2,1,13) = 0
 flow(2,2,13): e(2,2,12) - x(2,2,13) = 0
 flow(2,3,13): x(2,1,9) + e(2,3,12) - x(2,3,13) - e(2,3,13) = 0
 flow(2,1,14): x(2,2,9) + e(2,1,13) - x(2,1,14) - e(2,1,14) = 0
 flow(2,3,14): x(2,1,10) + e(2,3,13) - x(2,3,14) - e(2,3,14) = 0
 flow(2,1,15): x(2,2,10) + e(2,1,14) - x(2,1,15) - e(2,1,15) = 0
 flow(2,3,15): x(2,1,11) + e(2,3,14) - x(2,3,15) - e(2,3,15) = 0
 flow(2,1,16): x(2,2,11) + e(2,1,15) - x(2,1,16) - e(2,1,16) = 0
 flow(2,3,16): x(2,1,12) + e(2,3,15) - x(2,3,16) - e(2,3,16) = 0
 flow(2,1,17): x(2,2,12) + e(2,1,16) - x(2,1,17) - e(2,1,17) = 0
 flow(2,3,17): x(2,1,13) + e(2,3,16) - x(2,3,17) - e(2,3,17) = 0
 flow(2,1,18): x(2,2,13) + e(2,1,17) - x(2,1,18) = 0
 flow(2,3,18): x(2,1,14) + e(2,3,17) - x(2,3,18) - e(2,3,18) = 0
 flow(2,3,19): x(2,1,15) + e(2,3,18) - x(2,3,19) - e(2,3,19) = 0
 flow(2,3,20): x(2,1,16) + e(2,3,19) - x(2,3,20) - e(2,3,20) = 0
 flow(2,3,21): x(2,1,17) + e(2,3,20) - x(2,3,21) - e(2,3,21) = 0
 flow(2,3,22): x(2,1,18) + e(2,3,21) - x(2,3,22) - e(2,3,22) = 0
 flow(2,3,23): e(2,3,22) = 0
 flow(3,2,0): x(3,i,0,2,0) - x(3,2,0) - e(3,2,0) = 0
 flow(3,2,1): e(3,2,0) - x(3,2,1) - e(3,2,1) = 0
 flow(3,2,2): e(3,2,1) - x(3,2,2) - e(3,2,2) = 0
 flow(3,2,3): e(3,2,2) - x(3,2,3) - e(3,2,3) = 0
 flow(3,3,3): x(3,2,0) - x(3,3,3) - e(3,3,3) = 0
 flow(3,1,4): x(3,3,3) - x(3,1,4) - e(3,1,4) = 0
 flow(3,2,4): e(3,2,3) - x(3,2,4) - e(3,2,4) = 0
 flow(3,3,4): x(3,2,1) + e(3,3,3) - x(3,3,4) - e(3,3,4) = 0
 flow(3,1,5): x(3,3,4) + e(3,1,4) - x(3,1,5) - e(3,1,5) = 0
 flow(3,2,5): e(3,2,4) - x(3,2,5) - e(3,2,5) = 0
 flow(3,3,5): x(3,2,2) + e(3,3,4) - x(3,3,5) - e(3,3,5) = 0
 flow(3,1,6): x(3,3,5) + e(3,1,5) - x(3,1,6) - e(3,1,6) = 0
 flow(3,2,6): e(3,2,5) - x(3,2,6) - e(3,2,6) = 0
 flow(3,3,6): x(3,2,3) + e(3,3,5) - x(3,3,6) - e(3,3,6) = 0
 flow(3,1,7): x(3,3,6) + e(3,1,6) - x(3,1,7) - e(3,1,7) = 0
 flow(3,2,7): e(3,2,6) - x(3,2,7) - e(3,2,7) = 0
 flow(3,3,7): x(3,2,4) + e(3,3,6) - x(3,3,7) - e(3,3,7) = 0
 flow(3,1,8): x(3,3,7) + e(3,1,7) - x(3,1,8) - e(3,1,8) = 0
 flow(3,2,8): e(3,2,7) - x(3,2,8) - e(3,2,8) = 0
 flow(3,3,8): x(3,2,5) + e(3,3,7) - x(3,3,8) - e(3,3,8) = 0
 flow(3,1,9): x(3,3,8) + e(3,1,8) - x(3,1,9) - e(3,1,9) = 0
 flow(3,2,9): e(3,2,8) - x(3,2,9) - e(3,2,9) = 0
 flow(3,3,9): x(3,2,6) + e(3,3,8) - x(3,3,9) - e(3,3,9) = 0
 flow(3,1,10): x(3,3,9) + e(3,1,9) - x(3,1,10) - e(3,1,10) = 0
 flow(3,2,10): e(3,2,9) - x(3,2,10) - e(3,2,10) = 0
 flow(3,3,10): x(3,2,7) + e(3,3,9) - x(3,3,10) - e(3,3,10) = 0
 flow(3,1,11): x(3,3,10) + e(3,1,10) - x(3,1,11) - e(3,1,11) = 0
 flow(3,2,11): e(3,2,10) - x(3,2,11) - e(3,2,11) = 0
 flow(3,3,11): x(3,2,8) + e(3,3,10) - x(3,3,11) - e(3,3,11) = 0
 flow(3,1,12): x(3,3,11) + e(3,1,11) - x(3,1,12) - e(3,1,12) = 0
 flow(3,2,12): e(3,2,11) - x(3,2,12) - e(3,2,12) = 0
 flow(3,3,12): x(3,2,9) + e(3,3,11) - x(3,3,12) - e(3,3,12) = 0
 flow(3,1,13): x(3,3,12) + e(3,1,12) - x(3,1,13) - e(3,1,13) = 0
 flow(3,2,13): e(3,2,12) - x(3,2,13) - e(3,2,13) = 0
 flow(3,3,13): x(3,2,10) + e(3,3,12) - x(3,3,13) - e(3,3,13) = 0
 flow(3,1,14): x(3,3,13) + e(3,1,13) - x(3,1,14) - e(3,1,14) = 0
 flow(3,2,14): e(3,2,13) - x(3,2,14) - e(3,2,14) = 0
 flow(3,3,14): x(3,2,11) + e(3,3,13) - x(3,3,14) - e(3,3,14) = 0
 flow(3,1,15): x(3,3,14) + e(3,1,14) - x(3,1,15) - e(3,1,15) = 0
 flow(3,2,15): e(3,2,14) - x(3,2,15) - e(3,2,15) = 0
 flow(3,3,15): x(3,2,12) + e(3,3,14) - x(3,3,15) - e(3,3,15) = 0
 flow(3,1,16): x(3,3,15) + e(3,1,15) - x(3,1,16) - e(3,1,16) = 0
 flow(3,2,16): e(3,2,15) - x(3,2,16) - e(3,2,16) = 0
 flow(3,3,16): x(3,2,13) + e(3,3,15) - x(3,3,16) - e(3,3,16) = 0
 flow(3,1,17): x(3,3,16) + e(3,1,16) - x(3,1,17) - e(3,1,17) = 0
 flow(3,2,17): e(3,2,16) - x(3,2,17) - e(3,2,17) = 0
 flow(3,3,17): x(3,2,14) + e(3,3,16) - x(3,3,17) - e(3,3,17) = 0
 flow(3,1,18): x(3,3,17) + e(3,1,17) - x(3,1,18) - e(3,1,18) = 0
 flow(3,2,18): e(3,2,17) - x(3,2,18) = 0
 flow(3,3,18): x(3,2,15) + e(3,3,17) - x(3,3,18) - e(3,3,18) = 0
 flow(3,1,19): x(3,3,18) + e(3,1,18) - x(3,1,19) - e(3,1,19) = 0
 flow(3,3,19): x(3,2,16) + e(3,3,18) - x(3,3,19) - e(3,3,19) = 0
 flow(3,1,20): x(3,3,19) + e(3,1,19) - x(3,1,20) - e(3,1,20) = 0
 flow(3,3,20): x(3,2,17) + e(3,3,19) - x(3,3,20) - e(3,3,20) = 0
 flow(3,1,21): x(3,3,20) + e(3,1,20) - x(3,1,21) - e(3,1,21) = 0
 flow(3,3,21): x(3,2,18) + e(3,3,20) - x(3,3,21) = 0
 flow(3,1,22): x(3,3,21) + e(3,1,21) - x(3,1,22) - e(3,1,22) = 0
 flow(3,1,23): e(3,1,22) = 0
 processing(2,0): x(1,2,0) + x(2,2,0) + x(3,2,0) <= 1
 processing(2,1): x(1,2,0) + x(1,2,1) + x(2,2,0) + x(2,2,1) + x(3,2,0)
   + x(3,2,1) <= 1
 processing(2,2): x(1,2,0) + x(1,2,1) + x(1,2,2) + x(2,2,0) + x(2,2,1)
   + x(2,2,2) + x(3,2,0) + x(3,2,1) + x(3,2,2) <= 1
 processing(2,3): x(1,2,1) + x(1,2,2) + x(1,2,3) + x(2,2,0) + x(2,2,1)
   + x(2,2,2) + x(2,2,3) + x(3,2,1) + x(3,2,2) + x(3,2,3) <= 1
 processing(3,3): x(1,3,3) + x(3,3,3) <= 1
 processing(1,4): x(3,1,4) <= 1
 processing(2,4): x(1,2,2) + x(1,2,3) + x(1,2,4) + x(2,2,0) + x(2,2,1)
   + x(2,2,2) + x(2,2,3) + x(2,2,4) + x(3,2,2) + x(3,2,3) + x(3,2,4) <= 1
 processing(3,4): x(1,3,3) + x(1,3,4) + x(3,3,4) <= 1
 processing(1,5): x(2,1,5) + x(3,1,4) + x(3,1,5) <= 1
 processing(2,5): x(1,2,3) + x(1,2,4) + x(1,2,5) + x(2,2,1) + x(2,2,2)
   + x(2,2,3) + x(2,2,4) + x(2,2,5) + x(3,2,3) + x(3,2,4) + x(3,2,5) <= 1
 processing(3,5): x(1,3,3) + x(1,3,4) + x(1,3,5) + x(3,3,5) <= 1
 processing(1,6): x(2,1,5) + x(2,1,6) + x(3,1,4) + x(3,1,5) + x(3,1,6)
   <= 1
 processing(2,6): x(1,2,4) + x(1,2,5) + x(1,2,6) + x(2,2,2) + x(2,2,3)
   + x(2,2,4) + x(2,2,5) + x(2,2,6) + x(3,2,4) + x(3,2,5) + x(3,2,6) <= 1
 processing(3,6): x(1,3,3) + x(1,3,4) + x(1,3,5) + x(1,3,6) + x(3,3,6)
   <= 1
 processing(1,7): x(2,1,5) + x(2,1,6) + x(2,1,7) + x(3,1,5) + x(3,1,6)
   + x(3,1,7) <= 1
 processing(2,7): x(1,2,5) + x(1,2,6) + x(1,2,7) + x(2,2,3) + x(2,2,4)
   + x(2,2,5) + x(2,2,6) + x(2,2,7) + x(3,2,5) + x(3,2,6) + x(3,2,7) <= 1
 processing(3,7): x(1,3,3) + x(1,3,4) + x(1,3,5) + x(1,3,6) + x(1,3,7)
   + x(3,3,7) <= 1
 processing(1,8): x(1,1,8) + x(2,1,5) + x(2,1,6) + x(2,1,7) + x(2,1,8)
   + x(3,1,6) + x(3,1,7) + x(3,1,8) <= 1
 processing(2,8): x(1,2,6) + x(1,2,7) + x(1,2,8) + x(2,2,4) + x(2,2,5)
   + x(2,2,6) + x(2,2,7) + x(2,2,8) + x(3,2,6) + x(3,2,7) + x(3,2,8) <= 1
 processing(3,8): x(1,3,4) + x(1,3,5) + x(1,3,6) + x(1,3,7) + x(1,3,8)
   + x(3,3,8) <= 1
 processing(1,9): x(1,1,8) + x(1,1,9) + x(2,1,6) + x(2,1,7) + x(2,1,8)
   + x(2,1,9) + x(3,1,7) + x(3,1,8) + x(3,1,9) <= 1
 processing(2,9): x(1,2,7) + x(1,2,8) + x(1,2,9) + x(2,2,5) + x(2,2,6)
   + x(2,2,7) + x(2,2,8) + x(2,2,9) + x(3,2,7) + x(3,2,8) + x(3,2,9) <= 1
 processing(3,9): x(1,3,5) + x(1,3,6) + x(1,3,7) + x(1,3,8) + x(1,3,9)
   + x(2,3,9) + x(3,3,9) <= 1
 processing(1,10): x(1,1,8) + x(1,1,9) + x(1,1,10) + x(2,1,7) + x(2,1,8)
   + x(2,1,9) + x(2,1,10) + x(3,1,8) + x(3,1,9) + x(3,1,10) <= 1
 processing(2,10): x(1,2,8) + x(1,2,9) + x(1,2,10) + x(2,2,6) + x(2,2,7)
   + x(2,2,8) + x(2,2,9) + x(2,2,10) + x(3,2,8) + x(3,2,9) + x(3,2,10)
   <= 1
 processing(3,10): x(1,3,6) + x(1,3,7) + x(1,3,8) + x(1,3,9) + x(1,3,10)
   + x(2,3,9) + x(2,3,10) + x(3,3,10) <= 1
 processing(1,11): x(1,1,8) + x(1,1,9) + x(1,1,10) + x(1,1,11) + x(2,1,8)
   + x(2,1,9) + x(2,1,10) + x(2,1,11) + x(3,1,9) + x(3,1,10) + x(3,1,11)
   <= 1
 processing(2,11): x(1,2,9) + x(1,2,10) + x(1,2,11) + x(2,2,7) + x(2,2,8)
   + x(2,2,9) + x(2,2,10) + x(2,2,11) + x(3,2,9) + x(3,2,10) + x(3,2,11)
   <= 1
 processing(3,11): x(1,3,7) + x(1,3,8) + x(1,3,9) + x(1,3,10) + x(1,3,11)
   + x(2,3,9) + x(2,3,10) + x(2,3,11) + x(3,3,11) <= 1
 processing(1,12): x(1,1,8) + x(1,1,9) + x(1,1,10) + x(1,1,11) + x(1,1,12)
   + x(2,1,9) + x(2,1,10) + x(2,1,11) + x(2,1,12) + x(3,1,10) + x(3,1,11)
   + x(3,1,12) <= 1
 processing(2,12): x(1,2,10) + x(1,2,11) + x(1,2,12) + x(2,2,8) + x(2,2,9)
   + x(2,2,10) + x(2,2,11) + x(2,2,12) + x(3,2,10) + x(3,2,11) + x(3,2,12)
   <= 1
 processing(3,12): x(1,3,8) + x(1,3,9) + x(1,3,10) + x(1,3,11) + x(1,3,12)
   + x(2,3,10) + x(2,3,11) + x(2,3,12) + x(3,3,12) <= 1
 processing(1,13): x(1,1,9) + x(1,1,10) + x(1,1,11) + x(1,1,12) + x(1,1,13)
   + x(2,1,10) + x(2,1,11) + x(2,1,12) + x(2,1,13) + x(3,1,11) + x(3,1,12)
   + x(3,1,13) <= 1
 processing(2,13): x(1,2,11) + x(1,2,12) + x(2,2,9) + x(2,2,10) + x(2,2,11)
   + x(2,2,12) + x(2,2,13) + x(3,2,11) + x(3,2,12) + x(3,2,13) <= 1
 processing(3,13): x(1,3,9) + x(1,3,10) + x(1,3,11) + x(1,3,12) + x(1,3,13)
   + x(2,3,11) + x(2,3,12) + x(2,3,13) + x(3,3,13) <= 1
 processing(1,14): x(1,1,10) + x(1,1,11) + x(1,1,12) + x(1,1,13)
   + x(1,1,14) + x(2,1,11) + x(2,1,12) + x(2,1,13) + x(2,1,14) + x(3,1,12)
   + x(3,1,13) + x(3,1,14) <= 1
 processing(2,14): x(1,2,12) + x(2,2,10) + x(2,2,11) + x(2,2,12)
   + x(2,2,13) + x(3,2,12) + x(3,2,13) + x(3,2,14) <= 1
 processing(3,14): x(1,3,10) + x(1,3,11) + x(1,3,12) + x(1,3,13)
   + x(1,3,14) + x(2,3,12) + x(2,3,13) + x(2,3,14) + x(3,3,14) <= 1
 processing(1,15): x(1,1,11) + x(1,1,12) + x(1,1,13) + x(1,1,14)
   + x(1,1,15) + x(2,1,12) + x(2,1,13) + x(2,1,14) + x(2,1,15) + x(3,1,13)
   + x(3,1,14) + x(3,1,15) <= 1
 processing(2,15): x(2,2,11) + x(2,2,12) + x(2,2,13) + x(3,2,13)
   + x(3,2,14) + x(3,2,15) <= 1
 processing(3,15): x(1,3,11) + x(1,3,12) + x(1,3,13) + x(1,3,14)
   + x(1,3,15) + x(2,3,13) + x(2,3,14) + x(2,3,15) + x(3,3,15) <= 1
 processing(1,16): x(1,1,12) + x(1,1,13) + x(1,1,14) + x(1,1,15)
   + x(1,1,16) + x(2,1,13) + x(2,1,14) + x(2,1,15) + x(2,1,16) + x(3,1,14)
   + x(3,1,15) + x(3,1,16) <= 1
 processing(2,16): x(2,2,12) + x(2,2,13) + x(3,2,14) + x(3,2,15)
   + x(3,2,16) <= 1
 processing(3,16): x(1,3,12) + x(1,3,13) + x(1,3,14) + x(1,3,15)
   + x(2,3,14) + x(2,3,15) + x(2,3,16) + x(3,3,16) <= 1
 processing(1,17): x(1,1,13) + x(1,1,14) + x(1,1,15) + x(1,1,16)
   + x(1,1,17) + x(2,1,14) + x(2,1,15) + x(2,1,16) + x(2,1,17) + x(3,1,15)
   + x(3,1,16) + x(3,1,17) <= 1
 processing(2,17): x(2,2,13) + x(3,2,15) + x(3,2,16) + x(3,2,17) <= 1
 processing(3,17): x(1,3,13) + x(1,3,14) + x(1,3,15) + x(2,3,15)
   + x(2,3,16) + x(2,3,17) + x(3,3,17) <= 1
 processing(1,18): x(1,1,14) + x(1,1,15) + x(1,1,16) + x(1,1,17)
   + x(1,1,18) + x(2,1,15) + x(2,1,16) + x(2,1,17) + x(2,1,18) + x(3,1,16)
   + x(3,1,17) + x(3,1,18) <= 1
 processing(2,18): x(3,2,16) + x(3,2,17) + x(3,2,18) <= 1
 processing(3,18): x(1,3,14) + x(1,3,15) + x(2,3,16) + x(2,3,17)
   + x(2,3,18) + x(3,3,18) <= 1
 processing(1,19): x(1,1,15) + x(1,1,16) + x(1,1,17) + x(1,1,18)
   + x(1,1,19) + x(2,1,16) + x(2,1,17) + x(2,1,18) + x(3,1,17) + x(3,1,18)
   + x(3,1,19) <= 1
 processing(2,19): x(3,2,17) + x(3,2,18) <= 1
 processing(3,19): x(1,3,15) + x(2,3,17) + x(2,3,18) + x(2,3,19)
   + x(3,3,19) <= 1
 processing(1,20): x(1,1,16) + x(1,1,17) + x(1,1,18) + x(1,1,19)
   + x(1,1,20) + x(2,1,17) + x(2,1,18) + x(3,1,18) + x(3,1,19) + x(3,1,20)
   <= 1
 processing(2,20): x(3,2,18) <= 1
 processing(3,20): x(2,3,18) + x(2,3,19) + x(2,3,20) + x(3,3,20) <= 1
 processing(1,21): x(1,1,17) + x(1,1,18) + x(1,1,19) + x(1,1,20)
   + x(2,1,18) + x(3,1,19) + x(3,1,20) + x(3,1,21) <= 1
 processing(3,21): x(2,3,19) + x(2,3,20) + x(2,3,21) + x(3,3,21) <= 1
 processing(1,22): x(1,1,18) + x(1,1,19) + x(1,1,20) + x(3,1,20)
   + x(3,1,21) + x(3,1,22) <= 1
 processing(3,22): x(2,3,20) + x(2,3,21) + x(2,3,22) <= 1
 processing(1,23): x(1,1,19) + x(1,1,20) + x(3,1,21) + x(3,1,22) <= 1
 processing(3,23): x(2,3,21) + x(2,3,22) <= 1
 processing(1,24): x(1,1,20) + x(3,1,22) <= 1
 processing(3,24): x(2,3,22) <= 1
 fim(1): - 19 x(1,1,8) - 19 x(1,1,9) - 19 x(1,1,10) - 19 x(1,1,11)
   - 19 x(1,1,12) - 19 x(1,1,13) - 19 x(1,1,14) - 20 x(1,1,15)
   - 21 x(1,1,16) - 22 x(1,1,17) - 23 x(1,1,18) - 24 x(1,1,19)
   - 25 x(1,1,20) + C >= 0
 fim(2): - 19 x(2,3,9) - 19 x(2,3,10) - 19 x(2,3,11) - 19 x(2,3,12)
   - 19 x(2,3,13) - 19 x(2,3,14) - 19 x(2,3,15) - 19 x(2,3,16)
   - 20 x(2,3,17) - 21 x(2,3,18) - 22 x(2,3,19) - 23 x(2,3,20)
   - 24 x(2,3,21) - 25 x(2,3,22) + C >= 0
 fim(3): - 19 x(3,1,4) - 19 x(3,1,5) - 19 x(3,1,6) - 19 x(3,1,7)
   - 19 x(3,1,8) - 19 x(3,1,9) - 19 x(3,1,10) - 19 x(3,1,11) - 19 x(3,1,12)
   - 19 x(3,1,13) - 19 x(3,1,14) - 19 x(3,1,15) - 19 x(3,1,16)
   - 20 x(3,1,17) - 21 x(3,1,18) - 22 x(3,1,19) - 23 x(3,1,20)
   - 24 x(3,1,21) - 25 x(3,1,22) + C >= 0
Bounds
 x(1,i,0,2,0) <= 1
 x(1,2,0) <= 1
 e(1,2,0) <= 1
 x(1,2,1) <= 1
 e(1,2,1) <= 1
 x(1,2,2) <= 1
 e(1,2,2) <= 1
 x(1,2,3) <= 1
 e(1,2,3) <= 1
 x(1,2,4) <= 1
 e(1,2,4) <= 1
 x(1,2,5) <= 1
 e(1,2,5) <= 1
 x(1,2,6) <= 1
 e(1,2,6) <= 1
 x(1,2,7) <= 1
 e(1,2,7) <= 1
 x(1,2,8) <= 1
 e(1,2,8) <= 1
 x(1,2,9) <= 1
 e(1,2,9) <= 1
 x(1,2,10) <= 1
 e(1,2,10) <= 1
 x(1,2,11) <= 1
 e(1,2,11) <= 1
 x(1,2,12) <= 1
 x(1,3,3) <= 1
 e(1,3,3) <= 1
 x(1,3,4) <= 1
 e(1,3,4) <= 1
 x(1,3,5) <= 1
 e(1,3,5) <= 1
 x(1,3,6) <= 1
 e(1,3,6) <= 1
 x(1,3,7) <= 1
 e(1,3,7) <= 1
 x(1,3,8) <= 1
 e(1,3,8) <= 1
 x(1,3,9) <= 1
 e(1,3,9) <= 1
 x(1,3,10) <= 1
 e(1,3,10) <= 1
 x(1,3,11) <= 1
 e(1,3,11) <= 1
 x(1,3,12) <= 1
 e(1,3,12) <= 1
 x(1,3,13) <= 1
 e(1,3,13) <= 1
 x(1,3,14) <= 1
 e(1,3,14) <= 1
 x(1,3,15) <= 1
 x(1,1,8) <= 1
 e(1,1,8) <= 1
 x(1,1,9) <= 1
 e(1,1,9) <= 1
 x(1,1,10) <= 1
 e(1,1,10) <= 1
 x(1,1,11) <= 1
 e(1,1,11) <= 1
 x(1,1,12) <= 1
 e(1,1,12) <= 1
 x(1,1,13) <= 1
 e(1,1,13) <= 1
 x(1,1,14) <= 1
 e(1,1,14) <= 1
 x(1,1,15) <= 1
 e(1,1,15) <= 1
 x(1,1,16) <= 1
 e(1,1,16) <= 1
 x(1,1,17) <= 1
 e(1,1,17) <= 1
 x(1,1,18) <= 1
 e(1,1,18) <= 1
 x(1,1,19) <= 1
 e(1,1,19) <= 1
 x(1,1,20) <= 1
 e(1,1,20) <= 1
 x(2,i,0,2,0) <= 1
 x(2,2,0) <= 1
 e(2,2,0) <= 1
 x(2,2,1) <= 1
 e(2,2,1) <= 1
 x(2,2,2) <= 1
 e(2,2,2) <= 1
 x(2,2,3) <= 1
 e(2,2,3) <= 1
 x(2,2,4) <= 1
 e(2,2,4) <= 1
 x(2,2,5) <= 1
 e(2,2,5) <= 1
 x(2,2,6) <= 1
 e(2,2,6) <= 1
 x(2,2,7) <= 1
 e(2,2,7) <= 1
 x(2,2,8) <= 1
 e(2,2,8) <= 1
 x(2,2,9) <= 1
 e(2,2,9) <= 1
 x(2,2,10) <= 1
 e(2,2,10) <= 1
 x(2,2,11) <= 1
 e(2,2,11) <= 1
 x(2,2,12) <= 1
 e(2,2,12) <= 1
 x(2,2,13) <= 1
 x(2,1,5) <= 1
 e(2,1,5) <= 1
 x(2,1,6) <= 1
 e(2,1,6) <= 1
 x(2,1,7) <= 1
 e(2,1,7) <= 1
 x(2,1,8) <= 1
 e(2,1,8) <= 1
 x(2,1,9) <= 1
 e(2,1,9) <= 1
 x(2,1,10) <= 1
 e(2,1,10) <= 1
 x(2,1,11) <= 1
 e(2,1,11) <= 1
 x(2,1,12) <= 1
 e(2,1,12) <= 1
 x(2,1,13) <= 1
 e(2,1,13) <= 1
 x(2,1,14) <= 1
 e(2,1,14) <= 1
 x(2,1,15) <= 1
 e(2,1,15) <= 1
 x(2,1,16) <= 1
 e(2,1,16) <= 1
 x(2,1,17) <= 1
 e(2,1,17) <= 1
 x(2,1,18) <= 1
 x(2,3,9) <= 1
 e(2,3,9) <= 1
 x(2,3,10) <= 1
 e(2,3,10) <= 1
 x(2,3,11) <= 1
 e(2,3,11) <= 1
 x(2,3,12) <= 1
 e(2,3,12) <= 1
 x(2,3,13) <= 1
 e(2,3,13) <= 1
 x(2,3,14) <= 1
 e(2,3,14) <= 1
 x(2,3,15) <= 1
 e(2,3,15) <= 1
 x(2,3,16) <= 1
 e(2,3,16) <= 1
 x(2,3,17) <= 1
 e(2,3,17) <= 1
 x(2,3,18) <= 1
 e(2,3,18) <= 1
 x(2,3,19) <= 1
 e(2,3,19) <= 1
 x(2,3,20) <= 1
 e(2,3,20) <= 1
 x(2,3,21) <= 1
 e(2,3,21) <= 1
 x(2,3,22) <= 1
 e(2,3,22) <= 1
 x(3,i,0,2,0) <= 1
 x(3,2,0) <= 1
 e(3,2,0) <= 1
 x(3,2,1) <= 1
 e(3,2,1) <= 1
 x(3,2,2) <= 1
 e(3,2,2) <= 1
 x(3,2,3) <= 1
 e(3,2,3) <= 1
 x(3,2,4) <= 1
 e(3,2,4) <= 1
 x(3,2,5) <= 1
 e(3,2,5) <= 1
 x(3,2,6) <= 1
 e(3,2,6) <= 1
 x(3,2,7) <= 1
 e(3,2,7) <= 1
 x(3,2,8) <= 1
 e(3,2,8) <= 1
 x(3,2,9) <= 1
 e(3,2,9) <= 1
 x(3,2,10) <= 1
 e(3,2,10) <= 1
 x(3,2,11) <= 1
 e(3,2,11) <= 1
 x(3,2,12) <= 1
 e(3,2,12) <= 1
 x(3,2,13) <= 1
 e(3,2,13) <= 1
 x(3,2,14) <= 1
 e(3,2,14) <= 1
 x(3,2,15) <= 1
 e(3,2,15) <= 1
 x(3,2,16) <= 1
 e(3,2,16) <= 1
 x(3,2,17) <= 1
 e(3,2,17) <= 1
 x(3,2,18) <= 1
 x(3,3,3) <= 1
 e(3,3,3) <= 1
 x(3,3,4) <= 1
 e(3,3,4) <= 1
 x(3,3,5) <= 1
 e(3,3,5) <= 1
 x(3,3,6) <= 1
 e(3,3,6) <= 1
 x(3,3,7) <= 1
 e(3,3,7) <= 1
 x(3,3,8) <= 1
 e(3,3,8) <= 1
 x(3,3,9) <= 1
 e(3,3,9) <= 1
 x(3,3,10) <= 1
 e(3,3,10) <= 1
 x(3,3,11) <= 1
 e(3,3,11) <= 1
 x(3,3,12) <= 1
 e(3,3,12) <= 1
 x(3,3,13) <= 1
 e(3,3,13) <= 1
 x(3,3,14) <= 1
 e(3,3,14) <= 1
 x(3,3,15) <= 1
 e(3,3,15) <= 1
 x(3,3,16) <= 1
 e(3,3,16) <= 1
 x(3,3,17) <= 1
 e(3,3,17) <= 1
 x(3,3,18) <= 1
 e(3,3,18) <= 1
 x(3,3,19) <= 1
 e(3,3,19) <= 1
 x(3,3,20) <= 1
 e(3,3,20) <= 1
 x(3,3,21) <= 1
 x(3,1,4) <= 1
 e(3,1,4) <= 1
 x(3,1,5) <= 1
 e(3,1,5) <= 1
 x(3,1,6) <= 1
 e(3,1,6) <= 1
 x(3,1,7) <= 1
 e(3,1,7) <= 1
 x(3,1,8) <= 1
 e(3,1,8) <= 1
 x(3,1,9) <= 1
 e(3,1,9) <= 1
 x(3,1,10) <= 1
 e(3,1,10) <= 1
 x(3,1,11) <= 1
 e(3,1,11) <= 1
 x(3,1,12) <= 1
 e(3,1,12) <= 1
 x(3,1,13) <= 1
 e(3,1,13) <= 1
 x(3,1,14) <= 1
 e(3,1,14) <= 1
 x(3,1,15) <= 1
 e(3,1,15) <= 1
 x(3,1,16) <= 1
 e(3,1,16) <= 1
 x(3,1,17) <= 1
 e(3,1,17) <= 1
 x(3,1,18) <= 1
 e(3,1,18) <= 1
 x(3,1,19) <= 1
 e(3,1,19) <= 1
 x(3,1,20) <= 1
 e(3,1,20) <= 1
 x(3,1,21) <= 1
 e(3,1,21) <= 1
 x(3,1,22) <= 1
 e(3,1,22) <= 1
 C <= 26
Generals
 x(1,i,0,2,0) x(1,2,0) e(1,2,0) x(1,2,1) e(1,2,1) x(1,2,2) e(1,2,2)
 x(1,2,3) e(1,2,3) x(1,2,4) e(1,2,4) x(1,2,5) e(1,2,5) x(1,2,6) e(1,2,6)
 x(1,2,7) e(1,2,7) x(1,2,8) e(1,2,8) x(1,2,9) e(1,2,9) x(1,2,10) e(1,2,10)
 x(1,2,11) e(1,2,11) x(1,2,12) x(1,3,3) e(1,3,3) x(1,3,4) e(1,3,4) x(1,3,5)
 e(1,3,5) x(1,3,6) e(1,3,6) x(1,3,7) e(1,3,7) x(1,3,8) e(1,3,8) x(1,3,9)
 e(1,3,9) x(1,3,10) e(1,3,10) x(1,3,11) e(1,3,11) x(1,3,12) e(1,3,12)
 x(1,3,13) e(1,3,13) x(1,3,14) e(1,3,14) x(1,3,15) x(1,1,8) e(1,1,8)
 x(1,1,9) e(1,1,9) x(1,1,10) e(1,1,10) x(1,1,11) e(1,1,11) x(1,1,12)
 e(1,1,12) x(1,1,13) e(1,1,13) x(1,1,14) e(1,1,14) x(1,1,15) e(1,1,15)
 x(1,1,16) e(1,1,16) x(1,1,17) e(1,1,17) x(1,1,18) e(1,1,18) x(1,1,19)
 e(1,1,19) x(1,1,20) e(1,1,20) x(2,i,0,2,0) x(2,2,0) e(2,2,0) x(2,2,1)
 e(2,2,1) x(2,2,2) e(2,2,2) x(2,2,3) e(2,2,3) x(2,2,4) e(2,2,4) x(2,2,5)
 e(2,2,5) x(2,2,6) e(2,2,6) x(2,2,7) e(2,2,7) x(2,2,8) e(2,2,8) x(2,2,9)
 e(2,2,9) x(2,2,10) e(2,2,10) x(2,2,11) e(2,2,11) x(2,2,12) e(2,2,12)
 x(2,2,13) x(2,1,5) e(2,1,5) x(2,1,6) e(2,1,6) x(2,1,7) e(2,1,7) x(2,1,8)
 e(2,1,8) x(2,1,9) e(2,1,9) x(2,1,10) e(2,1,10) x(2,1,11) e(2,1,11)
 x(2,1,12) e(2,1,12) x(2,1,13) e(2,1,13) x(2,1,14) e(2,1,14) x(2,1,15)
 e(2,1,15) x(2,1,16) e(2,1,16) x(2,1,17) e(2,1,17) x(2,1,18) x(2,3,9)
 e(2,3,9) x(2,3,10) e(2,3,10) x(2,3,11) e(2,3,11) x(2,3,12) e(2,3,12)
 x(2,3,13) e(2,3,13) x(2,3,14) e(2,3,14) x(2,3,15) e(2,3,15) x(2,3,16)
 e(2,3,16) x(2,3,17) e(2,3,17) x(2,3,18) e(2,3,18) x(2,3,19) e(2,3,19)
 x(2,3,20) e(2,3,20) x(2,3,21) e(2,3,21) x(2,3,22) e(2,3,22) x(3,i,0,2,0)
 x(3,2,0) e(3,2,0) x(3,2,1) e(3,2,1) x(3,2,2) e(3,2,2) x(3,2,3) e(3,2,3)
 x(3,2,4) e(3,2,4) x(3,2,5) e(3,2,5) x(3,2,6) e(3,2,6) x(3,2,7) e(3,2,7)
 x(3,2,8) e(3,2,8) x(3,2,9) e(3,2,9) x(3,2,10) e(3,2,10) x(3,2,11)
 e(3,2,11) x(3,2,12) e(3,2,12) x(3,2,13) e(3,2,13) x(3,2,14) e(3,2,14)
 x(3,2,15) e(3,2,15) x(3,2,16) e(3,2,16) x(3,2,17) e(3,2,17) x(3,2,18)
 x(3,3,3) e(3,3,3) x(3,3,4) e(3,3,4) x(3,3,5) e(3,3,5) x(3,3,6) e(3,3,6)
 x(3,3,7) e(3,3,7) x(3,3,8) e(3,3,8) x(3,3,9) e(3,3,9) x(3,3,10) e(3,3,10)
 x(3,3,11) e(3,3,11) x(3,3,12) e(3,3,12) x(3,3,13) e(3,3,13) x(3,3,14)
 e(3,3,14) x(3,3,15) e(3,3,15) x(3,3,16) e(3,3,16) x(3,3,17) e(3,3,17)
 x(3,3,18) e(3,3,18) x(3,3,19) e(3,3,19) x(3,3,20) e(3,3,20) x(3,3,21)
 x(3,1,4) e(3,1,4) x(3,1,5) e(3,1,5) x(3,1,6) e(3,1,6) x(3,1,7) e(3,1,7)
 x(3,1,8) e(3,1,8) x(3,1,9) e(3,1,9) x(3,1,10) e(3,1,10) x(3,1,11)
 e(3,1,11) x(3,1,12) e(3,1,12) x(3,1,13) e(3,1,13) x(3,1,14) e(3,1,14)
 x(3,1,15) e(3,1,15) x(3,1,16) e(3,1,16) x(3,1,17) e(3,1,17) x(3,1,18)
 e(3,1,18) x(3,1,19) e(3,1,19) x(3,1,20) e(3,1,20) x(3,1,21) e(3,1,21)
 x(3,1,22) e(3,1,22) C
End
