code/vi_33_20_packing.sol
Optimal (within gap tolerance) - objective value 20 - solution time 0
0 x(1,i,0,2,0) 1 0
1 x(1,2,0) 1 0
26 x(1,3,3) 1 0
52 e(1,1,8) 1 0
54 e(1,1,9) 1 0
56 e(1,1,10) 1 0
58 e(1,1,11) 1 0
60 e(1,1,12) 1 0
62 e(1,1,13) 1 0
64 e(1,1,14) 1 0
65 x(1,1,15) 1 0
77 x(2,i,0,2,0) 1 0
79 e(2,2,0) 1 0
81 e(2,2,1) 1 0
83 e(2,2,2) 1 0
84 x(2,2,3) 1 0
111 x(2,1,8) 1 0
139 e(2,3,12) 1 0
141 e(2,3,13) 1 0
143 e(2,3,14) 1 0
145 e(2,3,15) 1 0
146 x(2,3,16) 1 0
160 x(3,i,0,2,0) 1 0
162 e(3,2,0) 1 0
164 e(3,2,1) 1 0
166 e(3,2,2) 1 0
168 e(3,2,3) 1 0
170 e(3,2,4) 1 0
172 e(3,2,5) 1 0
174 e(3,2,6) 1 0
176 e(3,2,7) 1 0
177 x(3,2,8) 1 0
214 x(3,3,11) 1 0
251 x(3,1,12) 1 0
273 C 20 1
